/*--------------------- OBJECTIVE FUNCTION ---------------------*/
min: 1*g_1_1 + 1*g_1_2 + 3*w_1_1_2 + 3*w_1_2_2 + 3*w_1_3_2 + 9*i_1_1 + 9*i_1_2 + 9*i_1_3 + 1*g_2_1 + 1*g_2_2 + 3*w_2_1_2 + 3*w_2_2_2 + 3*w_2_3_2 + 9*i_2_1 + 9*i_2_2 + 9*i_2_3 + 1*g_3_1 + 1*g_3_2 + 3*w_3_1_2 + 3*w_3_2_2 + 3*w_3_3_2 + 9*i_3_1 + 9*i_3_2 + 9*i_3_3;

/*--------------------- CONSTRAINT 1 - Node inflow and outflow for a given teacher ---------------------*/

/* Teacher 1 */
/* Day off Nodes: */
-1*b_1_1 - i_1_1 = -1;
b_1_1 + l_1_1_4 + l_1_1_3 + l_1_1_2 - i_1_2 - b_1_2 = 0;
b_1_2 + l_1_2_4 + l_1_2_3 + l_1_2_2 - i_1_3 - b_1_3 = 0;
b_1_3 + l_1_3_4 + l_1_3_3 + l_1_3_2 = 1;

/* Day Start Nodes: */
i_1_1 - e_1_1_1 - e_1_1_2 - e_1_1_3 = 0;
i_1_2 - e_1_2_1 - e_1_2_2 - e_1_2_3 = 0;
i_1_3 - e_1_3_1 - e_1_3_2 - e_1_3_3 = 0;

/* Internal (Period) Nodes: */
e_1_1_1 - x_1_1_1_1_2 - x_1_1_1_1_3 - x_1_1_2_1_2 - x_1_1_2_1_3 = 0;
e_1_1_2 - l_1_1_2 - w_1_1_2 + x_1_1_1_1_2 - x_1_1_1_2_3 - x_1_1_1_2_4 + x_1_1_2_1_2 - x_1_1_2_2_3 - x_1_1_2_2_4 = 0;
e_1_1_3 - l_1_1_3 + w_1_1_2 + x_1_1_1_2_3 + x_1_1_1_1_3 - x_1_1_1_3_4 + x_1_1_2_2_3 + x_1_1_2_1_3 - x_1_1_2_3_4 = 0;
-1*l_1_1_4 + x_1_1_1_3_4 + x_1_1_1_2_4 + x_1_1_2_3_4 + x_1_1_2_2_4 = 0;
e_1_2_1 - x_1_2_1_1_2 - x_1_2_1_1_3 - x_1_2_2_1_2 - x_1_2_2_1_3 = 0;
e_1_2_2 - l_1_2_2 - w_1_2_2 + x_1_2_1_1_2 - x_1_2_1_2_3 - x_1_2_1_2_4 + x_1_2_2_1_2 - x_1_2_2_2_3 - x_1_2_2_2_4 = 0;
e_1_2_3 - l_1_2_3 + w_1_2_2 + x_1_2_1_2_3 + x_1_2_1_1_3 - x_1_2_1_3_4 + x_1_2_2_2_3 + x_1_2_2_1_3 - x_1_2_2_3_4 = 0;
-1*l_1_2_4 + x_1_2_1_3_4 + x_1_2_1_2_4 + x_1_2_2_3_4 + x_1_2_2_2_4 = 0;
e_1_3_1 - x_1_3_1_1_2 - x_1_3_1_1_3 - x_1_3_2_1_2 - x_1_3_2_1_3 = 0;
e_1_3_2 - l_1_3_2 - w_1_3_2 + x_1_3_1_1_2 - x_1_3_1_2_3 - x_1_3_1_2_4 + x_1_3_2_1_2 - x_1_3_2_2_3 - x_1_3_2_2_4 = 0;
e_1_3_3 - l_1_3_3 + w_1_3_2 + x_1_3_1_2_3 + x_1_3_1_1_3 - x_1_3_1_3_4 + x_1_3_2_2_3 + x_1_3_2_1_3 - x_1_3_2_3_4 = 0;
-1*l_1_3_4 + x_1_3_1_3_4 + x_1_3_1_2_4 + x_1_3_2_3_4 + x_1_3_2_2_4 = 0;

/* Teacher 2 */
/* Day off Nodes: */
-1*b_2_1 - i_2_1 = -1;
b_2_1 + l_2_1_4 + l_2_1_3 + l_2_1_2 - i_2_2 - b_2_2 = 0;
b_2_2 + l_2_2_4 + l_2_2_3 + l_2_2_2 - i_2_3 - b_2_3 = 0;
b_2_3 + l_2_3_4 + l_2_3_3 + l_2_3_2 = 1;

/* Day Start Nodes: */
i_2_1 - e_2_1_1 - e_2_1_2 - e_2_1_3 = 0;
i_2_2 - e_2_2_1 - e_2_2_2 - e_2_2_3 = 0;
i_2_3 - e_2_3_1 - e_2_3_2 - e_2_3_3 = 0;

/* Internal (Period) Nodes: */
e_2_1_1 - x_2_1_1_1_2 - x_2_1_1_1_3 - x_2_1_2_1_2 - x_2_1_2_1_3 = 0;
e_2_1_2 - l_2_1_2 - w_2_1_2 + x_2_1_1_1_2 - x_2_1_1_2_3 - x_2_1_1_2_4 + x_2_1_2_1_2 - x_2_1_2_2_3 - x_2_1_2_2_4 = 0;
e_2_1_3 - l_2_1_3 + w_2_1_2 + x_2_1_1_2_3 + x_2_1_1_1_3 - x_2_1_1_3_4 + x_2_1_2_2_3 + x_2_1_2_1_3 - x_2_1_2_3_4 = 0;
-1*l_2_1_4 + x_2_1_1_3_4 + x_2_1_1_2_4 + x_2_1_2_3_4 + x_2_1_2_2_4 = 0;
e_2_2_1 - x_2_2_1_1_2 - x_2_2_1_1_3 - x_2_2_2_1_2 - x_2_2_2_1_3 = 0;
e_2_2_2 - l_2_2_2 - w_2_2_2 + x_2_2_1_1_2 - x_2_2_1_2_3 - x_2_2_1_2_4 + x_2_2_2_1_2 - x_2_2_2_2_3 - x_2_2_2_2_4 = 0;
e_2_2_3 - l_2_2_3 + w_2_2_2 + x_2_2_1_2_3 + x_2_2_1_1_3 - x_2_2_1_3_4 + x_2_2_2_2_3 + x_2_2_2_1_3 - x_2_2_2_3_4 = 0;
-1*l_2_2_4 + x_2_2_1_3_4 + x_2_2_1_2_4 + x_2_2_2_3_4 + x_2_2_2_2_4 = 0;
e_2_3_1 - x_2_3_1_1_2 - x_2_3_1_1_3 - x_2_3_2_1_2 - x_2_3_2_1_3 = 0;
e_2_3_2 - l_2_3_2 - w_2_3_2 + x_2_3_1_1_2 - x_2_3_1_2_3 - x_2_3_1_2_4 + x_2_3_2_1_2 - x_2_3_2_2_3 - x_2_3_2_2_4 = 0;
e_2_3_3 - l_2_3_3 + w_2_3_2 + x_2_3_1_2_3 + x_2_3_1_1_3 - x_2_3_1_3_4 + x_2_3_2_2_3 + x_2_3_2_1_3 - x_2_3_2_3_4 = 0;
-1*l_2_3_4 + x_2_3_1_3_4 + x_2_3_1_2_4 + x_2_3_2_3_4 + x_2_3_2_2_4 = 0;

/* Teacher 3 */
/* Day off Nodes: */
-1*b_3_1 - i_3_1 = -1;
b_3_1 + l_3_1_4 + l_3_1_3 + l_3_1_2 - i_3_2 - b_3_2 = 0;
b_3_2 + l_3_2_4 + l_3_2_3 + l_3_2_2 - i_3_3 - b_3_3 = 0;
b_3_3 + l_3_3_4 + l_3_3_3 + l_3_3_2 = 1;

/* Day Start Nodes: */
i_3_1 - e_3_1_1 - e_3_1_2 - e_3_1_3 = 0;
i_3_2 - e_3_2_1 - e_3_2_2 - e_3_2_3 = 0;
i_3_3 - e_3_3_1 - e_3_3_2 - e_3_3_3 = 0;

/* Internal (Period) Nodes: */
e_3_1_1 - x_3_1_1_1_2 - x_3_1_1_1_3 - x_3_1_2_1_2 - x_3_1_2_1_3 = 0;
e_3_1_2 - l_3_1_2 - w_3_1_2 + x_3_1_1_1_2 - x_3_1_1_2_3 - x_3_1_1_2_4 + x_3_1_2_1_2 - x_3_1_2_2_3 - x_3_1_2_2_4 = 0;
e_3_1_3 - l_3_1_3 + w_3_1_2 + x_3_1_1_2_3 + x_3_1_1_1_3 - x_3_1_1_3_4 + x_3_1_2_2_3 + x_3_1_2_1_3 - x_3_1_2_3_4 = 0;
-1*l_3_1_4 + x_3_1_1_3_4 + x_3_1_1_2_4 + x_3_1_2_3_4 + x_3_1_2_2_4 = 0;
e_3_2_1 - x_3_2_1_1_2 - x_3_2_1_1_3 - x_3_2_2_1_2 - x_3_2_2_1_3 = 0;
e_3_2_2 - l_3_2_2 - w_3_2_2 + x_3_2_1_1_2 - x_3_2_1_2_3 - x_3_2_1_2_4 + x_3_2_2_1_2 - x_3_2_2_2_3 - x_3_2_2_2_4 = 0;
e_3_2_3 - l_3_2_3 + w_3_2_2 + x_3_2_1_2_3 + x_3_2_1_1_3 - x_3_2_1_3_4 + x_3_2_2_2_3 + x_3_2_2_1_3 - x_3_2_2_3_4 = 0;
-1*l_3_2_4 + x_3_2_1_3_4 + x_3_2_1_2_4 + x_3_2_2_3_4 + x_3_2_2_2_4 = 0;
e_3_3_1 - x_3_3_1_1_2 - x_3_3_1_1_3 - x_3_3_2_1_2 - x_3_3_2_1_3 = 0;
e_3_3_2 - l_3_3_2 - w_3_3_2 + x_3_3_1_1_2 - x_3_3_1_2_3 - x_3_3_1_2_4 + x_3_3_2_1_2 - x_3_3_2_2_3 - x_3_3_2_2_4 = 0;
e_3_3_3 - l_3_3_3 + w_3_3_2 + x_3_3_1_2_3 + x_3_3_1_1_3 - x_3_3_1_3_4 + x_3_3_2_2_3 + x_3_3_2_1_3 - x_3_3_2_3_4 = 0;
-1*l_3_3_4 + x_3_3_1_3_4 + x_3_3_1_2_4 + x_3_3_2_3_4 + x_3_3_2_2_4 = 0;

/*--------------------- CONSTRAINT 2 - One Teacher per Arc ---------------------*/
x_1_1_1_1_2 + x_1_1_1_1_3 + x_2_1_1_1_2 + x_2_1_1_1_3 + x_3_1_1_1_2 + x_3_1_1_1_3 <= 1;
x_1_1_1_2_3 + x_1_1_1_2_4 + x_1_1_1_1_3 + x_2_1_1_2_3 + x_2_1_1_2_4 + x_2_1_1_1_3 + x_3_1_1_2_3 + x_3_1_1_2_4 + x_3_1_1_1_3 <= 1;
x_1_1_1_3_4+ x_1_1_1_2_4 + x_2_1_1_3_4 + x_2_1_1_2_4 + x_3_1_1_3_4 + x_3_1_1_2_4 <= 1;
x_1_1_2_1_2 + x_1_1_2_1_3 + x_2_1_2_1_2 + x_2_1_2_1_3 + x_3_1_2_1_2 + x_3_1_2_1_3 <= 1;
x_1_1_2_2_3 + x_1_1_2_2_4 + x_1_1_2_1_3 + x_2_1_2_2_3 + x_2_1_2_2_4 + x_2_1_2_1_3 + x_3_1_2_2_3 + x_3_1_2_2_4 + x_3_1_2_1_3 <= 1;
x_1_1_2_3_4+ x_1_1_2_2_4 + x_2_1_2_3_4 + x_2_1_2_2_4 + x_3_1_2_3_4 + x_3_1_2_2_4 <= 1;
x_1_2_1_1_2 + x_1_2_1_1_3 + x_2_2_1_1_2 + x_2_2_1_1_3 + x_3_2_1_1_2 + x_3_2_1_1_3 <= 1;
x_1_2_1_2_3 + x_1_2_1_2_4 + x_1_2_1_1_3 + x_2_2_1_2_3 + x_2_2_1_2_4 + x_2_2_1_1_3 + x_3_2_1_2_3 + x_3_2_1_2_4 + x_3_2_1_1_3 <= 1;
x_1_2_1_3_4+ x_1_2_1_2_4 + x_2_2_1_3_4 + x_2_2_1_2_4 + x_3_2_1_3_4 + x_3_2_1_2_4 <= 1;
x_1_2_2_1_2 + x_1_2_2_1_3 + x_2_2_2_1_2 + x_2_2_2_1_3 + x_3_2_2_1_2 + x_3_2_2_1_3 <= 1;
x_1_2_2_2_3 + x_1_2_2_2_4 + x_1_2_2_1_3 + x_2_2_2_2_3 + x_2_2_2_2_4 + x_2_2_2_1_3 + x_3_2_2_2_3 + x_3_2_2_2_4 + x_3_2_2_1_3 <= 1;
x_1_2_2_3_4+ x_1_2_2_2_4 + x_2_2_2_3_4 + x_2_2_2_2_4 + x_3_2_2_3_4 + x_3_2_2_2_4 <= 1;
x_1_3_1_1_2 + x_1_3_1_1_3 + x_2_3_1_1_2 + x_2_3_1_1_3 + x_3_3_1_1_2 + x_3_3_1_1_3 <= 1;
x_1_3_1_2_3 + x_1_3_1_2_4 + x_1_3_1_1_3 + x_2_3_1_2_3 + x_2_3_1_2_4 + x_2_3_1_1_3 + x_3_3_1_2_3 + x_3_3_1_2_4 + x_3_3_1_1_3 <= 1;
x_1_3_1_3_4+ x_1_3_1_2_4 + x_2_3_1_3_4 + x_2_3_1_2_4 + x_3_3_1_3_4 + x_3_3_1_2_4 <= 1;
x_1_3_2_1_2 + x_1_3_2_1_3 + x_2_3_2_1_2 + x_2_3_2_1_3 + x_3_3_2_1_2 + x_3_3_2_1_3 <= 1;
x_1_3_2_2_3 + x_1_3_2_2_4 + x_1_3_2_1_3 + x_2_3_2_2_3 + x_2_3_2_2_4 + x_2_3_2_1_3 + x_3_3_2_2_3 + x_3_3_2_2_4 + x_3_3_2_1_3 <= 1;
x_1_3_2_3_4+ x_1_3_2_2_4 + x_2_3_2_3_4 + x_2_3_2_2_4 + x_3_3_2_3_4 + x_3_3_2_2_4 <= 1;

/*--------------------- CONSTRAINT 3 - Total Hours Constraint ---------------------*/

/* Teacher 1 */
1*x_1_1_1_1_2 + 1*x_1_1_1_2_3 + 1*x_1_1_1_3_4 + 2*x_1_1_1_1_3 + 2*x_1_1_1_2_4 + 1*x_1_2_1_1_2 + 1*x_1_2_1_2_3 + 1*x_1_2_1_3_4 + 2*x_1_2_1_1_3 + 2*x_1_2_1_2_4 + 1*x_1_3_1_1_2 + 1*x_1_3_1_2_3 + 1*x_1_3_1_3_4 + 2*x_1_3_1_1_3 + 2*x_1_3_1_2_4 = 4;
1*x_1_1_2_1_2 + 1*x_1_1_2_2_3 + 1*x_1_1_2_3_4 + 2*x_1_1_2_1_3 + 2*x_1_1_2_2_4 + 1*x_1_2_2_1_2 + 1*x_1_2_2_2_3 + 1*x_1_2_2_3_4 + 2*x_1_2_2_1_3 + 2*x_1_2_2_2_4 + 1*x_1_3_2_1_2 + 1*x_1_3_2_2_3 + 1*x_1_3_2_3_4 + 2*x_1_3_2_1_3 + 2*x_1_3_2_2_4 = 0;

/* Teacher 2 */
1*x_2_1_1_1_2 + 1*x_2_1_1_2_3 + 1*x_2_1_1_3_4 + 2*x_2_1_1_1_3 + 2*x_2_1_1_2_4 + 1*x_2_2_1_1_2 + 1*x_2_2_1_2_3 + 1*x_2_2_1_3_4 + 2*x_2_2_1_1_3 + 2*x_2_2_1_2_4 + 1*x_2_3_1_1_2 + 1*x_2_3_1_2_3 + 1*x_2_3_1_3_4 + 2*x_2_3_1_1_3 + 2*x_2_3_1_2_4 = 2;
1*x_2_1_2_1_2 + 1*x_2_1_2_2_3 + 1*x_2_1_2_3_4 + 2*x_2_1_2_1_3 + 2*x_2_1_2_2_4 + 1*x_2_2_2_1_2 + 1*x_2_2_2_2_3 + 1*x_2_2_2_3_4 + 2*x_2_2_2_1_3 + 2*x_2_2_2_2_4 + 1*x_2_3_2_1_2 + 1*x_2_3_2_2_3 + 1*x_2_3_2_3_4 + 2*x_2_3_2_1_3 + 2*x_2_3_2_2_4 = 2;

/* Teacher 3 */
1*x_3_1_1_1_2 + 1*x_3_1_1_2_3 + 1*x_3_1_1_3_4 + 2*x_3_1_1_1_3 + 2*x_3_1_1_2_4 + 1*x_3_2_1_1_2 + 1*x_3_2_1_2_3 + 1*x_3_2_1_3_4 + 2*x_3_2_1_1_3 + 2*x_3_2_1_2_4 + 1*x_3_3_1_1_2 + 1*x_3_3_1_2_3 + 1*x_3_3_1_3_4 + 2*x_3_3_1_1_3 + 2*x_3_3_1_2_4 = 3;
1*x_3_1_2_1_2 + 1*x_3_1_2_2_3 + 1*x_3_1_2_3_4 + 2*x_3_1_2_1_3 + 2*x_3_1_2_2_4 + 1*x_3_2_2_1_2 + 1*x_3_2_2_2_3 + 1*x_3_2_2_3_4 + 2*x_3_2_2_1_3 + 2*x_3_2_2_2_4 + 1*x_3_3_2_1_2 + 1*x_3_3_2_2_3 + 1*x_3_3_2_3_4 + 2*x_3_3_2_1_3 + 2*x_3_3_2_2_4 = 3;

/*--------------------- CONSTRAINT 4 - Duration Constraints, per day ---------------------*/

/* Teacher 1 */
1*x_1_1_1_1_2 + 1*x_1_1_1_2_3 + 1*x_1_1_1_3_4 + 2*x_1_1_1_1_3 + 2*x_1_1_1_2_4 <= 2.0;
1*x_1_1_2_1_2 + 1*x_1_1_2_2_3 + 1*x_1_1_2_3_4 + 2*x_1_1_2_1_3 + 2*x_1_1_2_2_4 <= 2.0;
1*x_1_2_1_1_2 + 1*x_1_2_1_2_3 + 1*x_1_2_1_3_4 + 2*x_1_2_1_1_3 + 2*x_1_2_1_2_4 <= 2.0;
1*x_1_2_2_1_2 + 1*x_1_2_2_2_3 + 1*x_1_2_2_3_4 + 2*x_1_2_2_1_3 + 2*x_1_2_2_2_4 <= 2.0;
1*x_1_3_1_1_2 + 1*x_1_3_1_2_3 + 1*x_1_3_1_3_4 + 2*x_1_3_1_1_3 + 2*x_1_3_1_2_4 <= 2.0;
1*x_1_3_2_1_2 + 1*x_1_3_2_2_3 + 1*x_1_3_2_3_4 + 2*x_1_3_2_1_3 + 2*x_1_3_2_2_4 <= 2.0;

/* Teacher 2 */
1*x_2_1_1_1_2 + 1*x_2_1_1_2_3 + 1*x_2_1_1_3_4 + 2*x_2_1_1_1_3 + 2*x_2_1_1_2_4 <= 2.0;
1*x_2_1_2_1_2 + 1*x_2_1_2_2_3 + 1*x_2_1_2_3_4 + 2*x_2_1_2_1_3 + 2*x_2_1_2_2_4 <= 2.0;
1*x_2_2_1_1_2 + 1*x_2_2_1_2_3 + 1*x_2_2_1_3_4 + 2*x_2_2_1_1_3 + 2*x_2_2_1_2_4 <= 2.0;
1*x_2_2_2_1_2 + 1*x_2_2_2_2_3 + 1*x_2_2_2_3_4 + 2*x_2_2_2_1_3 + 2*x_2_2_2_2_4 <= 2.0;
1*x_2_3_1_1_2 + 1*x_2_3_1_2_3 + 1*x_2_3_1_3_4 + 2*x_2_3_1_1_3 + 2*x_2_3_1_2_4 <= 2.0;
1*x_2_3_2_1_2 + 1*x_2_3_2_2_3 + 1*x_2_3_2_3_4 + 2*x_2_3_2_1_3 + 2*x_2_3_2_2_4 <= 2.0;

/* Teacher 3 */
1*x_3_1_1_1_2 + 1*x_3_1_1_2_3 + 1*x_3_1_1_3_4 + 2*x_3_1_1_1_3 + 2*x_3_1_1_2_4 <= 2.0;
1*x_3_1_2_1_2 + 1*x_3_1_2_2_3 + 1*x_3_1_2_3_4 + 2*x_3_1_2_1_3 + 2*x_3_1_2_2_4 <= 2.0;
1*x_3_2_1_1_2 + 1*x_3_2_1_2_3 + 1*x_3_2_1_3_4 + 2*x_3_2_1_1_3 + 2*x_3_2_1_2_4 <= 2.0;
1*x_3_2_2_1_2 + 1*x_3_2_2_2_3 + 1*x_3_2_2_3_4 + 2*x_3_2_2_1_3 + 2*x_3_2_2_2_4 <= 2.0;
1*x_3_3_1_1_2 + 1*x_3_3_1_2_3 + 1*x_3_3_1_3_4 + 2*x_3_3_1_1_3 + 2*x_3_3_1_2_4 <= 2.0;
1*x_3_3_2_1_2 + 1*x_3_3_2_2_3 + 1*x_3_3_2_3_4 + 2*x_3_3_2_1_3 + 2*x_3_3_2_2_4 <= 2.0;

/*--------------------- CONSTRAINT 5 - No Consecutive Single Arcs ---------------------*/
x_1_1_1_1_2 + x_1_1_1_2_3 <= 1;
x_1_1_1_2_3 + x_1_1_1_3_4 <= 1;
x_1_1_2_1_2 + x_1_1_2_2_3 <= 1;
x_1_1_2_2_3 + x_1_1_2_3_4 <= 1;
x_1_2_1_1_2 + x_1_2_1_2_3 <= 1;
x_1_2_1_2_3 + x_1_2_1_3_4 <= 1;
x_1_2_2_1_2 + x_1_2_2_2_3 <= 1;
x_1_2_2_2_3 + x_1_2_2_3_4 <= 1;
x_1_3_1_1_2 + x_1_3_1_2_3 <= 1;
x_1_3_1_2_3 + x_1_3_1_3_4 <= 1;
x_1_3_2_1_2 + x_1_3_2_2_3 <= 1;
x_1_3_2_2_3 + x_1_3_2_3_4 <= 1;
x_2_1_1_1_2 + x_2_1_1_2_3 <= 1;
x_2_1_1_2_3 + x_2_1_1_3_4 <= 1;
x_2_1_2_1_2 + x_2_1_2_2_3 <= 1;
x_2_1_2_2_3 + x_2_1_2_3_4 <= 1;
x_2_2_1_1_2 + x_2_2_1_2_3 <= 1;
x_2_2_1_2_3 + x_2_2_1_3_4 <= 1;
x_2_2_2_1_2 + x_2_2_2_2_3 <= 1;
x_2_2_2_2_3 + x_2_2_2_3_4 <= 1;
x_2_3_1_1_2 + x_2_3_1_2_3 <= 1;
x_2_3_1_2_3 + x_2_3_1_3_4 <= 1;
x_2_3_2_1_2 + x_2_3_2_2_3 <= 1;
x_2_3_2_2_3 + x_2_3_2_3_4 <= 1;
x_3_1_1_1_2 + x_3_1_1_2_3 <= 1;
x_3_1_1_2_3 + x_3_1_1_3_4 <= 1;
x_3_1_2_1_2 + x_3_1_2_2_3 <= 1;
x_3_1_2_2_3 + x_3_1_2_3_4 <= 1;
x_3_2_1_1_2 + x_3_2_1_2_3 <= 1;
x_3_2_1_2_3 + x_3_2_1_3_4 <= 1;
x_3_2_2_1_2 + x_3_2_2_2_3 <= 1;
x_3_2_2_2_3 + x_3_2_2_3_4 <= 1;
x_3_3_1_1_2 + x_3_3_1_2_3 <= 1;
x_3_3_1_2_3 + x_3_3_1_3_4 <= 1;
x_3_3_2_1_2 + x_3_3_2_2_3 <= 1;
x_3_3_2_2_3 + x_3_3_2_3_4 <= 1;

/*--------------------- CONSTRAINT 6 - Non-negative Unsatisfied Double Lessons ---------------------*/
2 - x_1_1_1_1_3 - x_1_1_1_2_4 - x_1_2_1_1_3 - x_1_2_1_2_4 - x_1_3_1_1_3 - x_1_3_1_2_4 <= g_1_1;
0 - x_1_1_2_1_3 - x_1_1_2_2_4 - x_1_2_2_1_3 - x_1_2_2_2_4 - x_1_3_2_1_3 - x_1_3_2_2_4 <= g_1_2;
1 - x_2_1_1_1_3 - x_2_1_1_2_4 - x_2_2_1_1_3 - x_2_2_1_2_4 - x_2_3_1_1_3 - x_2_3_1_2_4 <= g_2_1;
1 - x_2_1_2_1_3 - x_2_1_2_2_4 - x_2_2_2_1_3 - x_2_2_2_2_4 - x_2_3_2_1_3 - x_2_3_2_2_4 <= g_2_2;
1 - x_3_1_1_1_3 - x_3_1_1_2_4 - x_3_2_1_1_3 - x_3_2_1_2_4 - x_3_3_1_1_3 - x_3_3_1_2_4 <= g_3_1;
1 - x_3_1_2_1_3 - x_3_1_2_2_4 - x_3_2_2_1_3 - x_3_2_2_2_4 - x_3_3_2_1_3 - x_3_3_2_2_4 <= g_3_2;

/*--------------------- CONSTRAINT 7 - Minimum Working Days ---------------------*/
i_1_1 + i_1_2 + i_1_3 >= 2.0;
i_2_1 + i_2_2 + i_2_3 >= 2.0;
i_3_1 + i_3_2 + i_3_3 >= 2.0;

/*--------------------- CONSTRAINT 9 - gtc >= 0 ---------------------*/
g_1_1 >= 0;
g_1_2 >= 0;
g_2_1 >= 0;
g_2_2 >= 0;
g_3_1 >= 0;
g_3_2 >= 0;

/*--------------------- ADDITIONAL CONSTRAINT 1 - Avoid entering and leaving a given day through the same node ---------------------*/


/* Teacher 1 */
e_1_1_2 + l_1_1_2 <= 1;
e_1_2_2 + l_1_2_2 <= 1;
e_1_3_2 + l_1_3_2 <= 1;


/* Teacher 2 */
e_2_1_2 + l_2_1_2 <= 1;
e_2_2_2 + l_2_2_2 <= 1;
e_2_3_2 + l_2_3_2 <= 1;


/* Teacher 3 */
e_3_1_2 + l_3_1_2 <= 1;
e_3_2_2 + l_3_2_2 <= 1;
e_3_3_2 + l_3_3_2 <= 1;

/*--------------------- ADDITIONAL CONSTRAINT 2 - Avoid entering into an idle period ---------------------*/


/* Teacher 1 */
e_1_1_2 + w_1_1_2 <= 1;
e_1_2_2 + w_1_2_2 <= 1;
e_1_3_2 + w_1_3_2 <= 1;


/* Teacher 2 */
e_2_1_2 + w_2_1_2 <= 1;
e_2_2_2 + w_2_2_2 <= 1;
e_2_3_2 + w_2_3_2 <= 1;


/* Teacher 3 */
e_3_1_2 + w_3_1_2 <= 1;
e_3_2_2 + w_3_2_2 <= 1;
e_3_3_2 + w_3_3_2 <= 1;

/*--------------------- ADDITIONAL CONSTRAINT 3 - Avoid leaving from an idle period ---------------------*/


/* Teacher 1 */
l_1_1_3 + w_1_1_2 <= 1;
l_1_2_3 + w_1_2_2 <= 1;
l_1_3_3 + w_1_3_2 <= 1;


/* Teacher 2 */
l_2_1_3 + w_2_1_2 <= 1;
l_2_2_3 + w_2_2_2 <= 1;
l_2_3_3 + w_2_3_2 <= 1;


/* Teacher 3 */
l_3_1_3 + w_3_1_2 <= 1;
l_3_2_3 + w_3_2_2 <= 1;
l_3_3_3 + w_3_3_2 <= 1;

/*--------------------- CONSTRAINT 8 - Binary Variable Constraints ---------------------*/


/* Teacher 1 */

/* Binary Constraints for day 1*/
bin x_1_1_1_1_2, x_1_1_1_2_3, x_1_1_1_3_4, x_1_1_1_1_3, x_1_1_1_2_4, x_1_1_2_1_2, x_1_1_2_2_3, x_1_1_2_3_4, x_1_1_2_1_3, x_1_1_2_2_4;
bin i_1_1, e_1_1_1, e_1_1_2, e_1_1_3, l_1_1_2, l_1_1_3, l_1_1_4;
bin w_1_1_2;
bin  b_1_1;

/* Binary Constraints for day 2*/
bin x_1_2_1_1_2, x_1_2_1_2_3, x_1_2_1_3_4, x_1_2_1_1_3, x_1_2_1_2_4, x_1_2_2_1_2, x_1_2_2_2_3, x_1_2_2_3_4, x_1_2_2_1_3, x_1_2_2_2_4;
bin i_1_2, e_1_2_1, e_1_2_2, e_1_2_3, l_1_2_2, l_1_2_3, l_1_2_4;
bin w_1_2_2;
bin  b_1_2;

/* Binary Constraints for day 3*/
bin x_1_3_1_1_2, x_1_3_1_2_3, x_1_3_1_3_4, x_1_3_1_1_3, x_1_3_1_2_4, x_1_3_2_1_2, x_1_3_2_2_3, x_1_3_2_3_4, x_1_3_2_1_3, x_1_3_2_2_4;
bin i_1_3, e_1_3_1, e_1_3_2, e_1_3_3, l_1_3_2, l_1_3_3, l_1_3_4;
bin w_1_3_2;
bin  b_1_3;


/* Teacher 2 */

/* Binary Constraints for day 1*/
bin x_2_1_1_1_2, x_2_1_1_2_3, x_2_1_1_3_4, x_2_1_1_1_3, x_2_1_1_2_4, x_2_1_2_1_2, x_2_1_2_2_3, x_2_1_2_3_4, x_2_1_2_1_3, x_2_1_2_2_4;
bin i_2_1, e_2_1_1, e_2_1_2, e_2_1_3, l_2_1_2, l_2_1_3, l_2_1_4;
bin w_2_1_2;
bin  b_2_1;

/* Binary Constraints for day 2*/
bin x_2_2_1_1_2, x_2_2_1_2_3, x_2_2_1_3_4, x_2_2_1_1_3, x_2_2_1_2_4, x_2_2_2_1_2, x_2_2_2_2_3, x_2_2_2_3_4, x_2_2_2_1_3, x_2_2_2_2_4;
bin i_2_2, e_2_2_1, e_2_2_2, e_2_2_3, l_2_2_2, l_2_2_3, l_2_2_4;
bin w_2_2_2;
bin  b_2_2;

/* Binary Constraints for day 3*/
bin x_2_3_1_1_2, x_2_3_1_2_3, x_2_3_1_3_4, x_2_3_1_1_3, x_2_3_1_2_4, x_2_3_2_1_2, x_2_3_2_2_3, x_2_3_2_3_4, x_2_3_2_1_3, x_2_3_2_2_4;
bin i_2_3, e_2_3_1, e_2_3_2, e_2_3_3, l_2_3_2, l_2_3_3, l_2_3_4;
bin w_2_3_2;
bin  b_2_3;


/* Teacher 3 */

/* Binary Constraints for day 1*/
bin x_3_1_1_1_2, x_3_1_1_2_3, x_3_1_1_3_4, x_3_1_1_1_3, x_3_1_1_2_4, x_3_1_2_1_2, x_3_1_2_2_3, x_3_1_2_3_4, x_3_1_2_1_3, x_3_1_2_2_4;
bin i_3_1, e_3_1_1, e_3_1_2, e_3_1_3, l_3_1_2, l_3_1_3, l_3_1_4;
bin w_3_1_2;
bin  b_3_1;

/* Binary Constraints for day 2*/
bin x_3_2_1_1_2, x_3_2_1_2_3, x_3_2_1_3_4, x_3_2_1_1_3, x_3_2_1_2_4, x_3_2_2_1_2, x_3_2_2_2_3, x_3_2_2_3_4, x_3_2_2_1_3, x_3_2_2_2_4;
bin i_3_2, e_3_2_1, e_3_2_2, e_3_2_3, l_3_2_2, l_3_2_3, l_3_2_4;
bin w_3_2_2;
bin  b_3_2;

/* Binary Constraints for day 3*/
bin x_3_3_1_1_2, x_3_3_1_2_3, x_3_3_1_3_4, x_3_3_1_1_3, x_3_3_1_2_4, x_3_3_2_1_2, x_3_3_2_2_3, x_3_3_2_3_4, x_3_3_2_1_3, x_3_3_2_2_4;
bin i_3_3, e_3_3_1, e_3_3_2, e_3_3_3, l_3_3_2, l_3_3_3, l_3_3_4;
bin w_3_3_2;
bin  b_3_3;